NAME : eil76.555.tour
COMMENT : Cost = 0_555
COMMENT : Found by LKH [Keld Helsgaun] Thu Nov 16 16:26:15 2017
TYPE : TOUR
DIMENSION : 78
TOUR_SECTION
1
43
77
33
63
16
3
44
32
9
39
72
58
10
31
55
25
50
18
24
49
23
56
41
42
64
22
61
21
47
36
69
71
60
70
20
37
5
15
57
13
54
19
14
59
66
65
38
11
53
35
7
8
46
34
52
27
45
29
48
30
4
75
76
67
26
12
40
17
51
6
68
2
74
28
62
78
73
-1
EOF
